Route 1: 0 20 58 21 55 48 67 91 2 54 59 81 23 0
Route 2: 0 53 90 43 38 61 94 63 0
Route 3: 0 99 25 87 44 1 100 33 0
Route 4: 0 18 50 6 95 30 97 27 4 24 0
Route 5: 0 57 7 80 96 12 65 19 51 46 36 78 0
Route 6: 0 47 76 22 49 75 93 3 14 0
Route 7: 0 79 66 86 60 28 85 15 0
Route 8: 0 26 9 89 37 84 8 0
Route 9: 0 11 32 41 10 83 92 0
Route 10: 0 17 88 71 73 64 72 0
Route 11: 0 5 39 42 29 70 13 77 0
Route 12: 0 16 40 98 74 69 31 68 45 82 56 52 0
Route 13: 0 34 35 62 0
